\ This file has been generated by DOcplex
\ ENCODING=ISO-8859-1
\Problem name: random_problem.lp

Minimize
 obj: 36 x0 + 18 x1 + 9 x2 - 228 x3 - 114 x4 - 57 x5 + [ 3328 x0^2 + 3328 x0*x1
      + 1664 x0*x2 + 1728 x0*x3 + 864 x0*x4 + 432 x0*x5 + 832 x1^2 + 832 x1*x2
      + 864 x1*x3 + 432 x1*x4 + 216 x1*x5 + 208 x2^2 + 432 x2*x3 + 216 x2*x4
      + 108 x2*x5 + 1312 x3^2 + 1312 x3*x4 + 656 x3*x5 + 328 x4^2 + 328 x4*x5
      + 82 x5^2 ]/2
Subject To
 c0: 4 x0 + 2 x1 + x2 + 4 x3 + 2 x4 + x5 = 7

Bounds
 0 <= x0 <= 1
 0 <= x1 <= 1
 0 <= x2 <= 1
 0 <= x3 <= 1
 0 <= x4 <= 1
 0 <= x5 <= 1

Binaries
 x0 x1 x2 x3 x4 x5
End
